c
c start with comments
c
p cnf 23 15
22 22 23 0
19 4 0
-12 -4 0
-20 -19 -19 -8 0
7 -15 18 0
-17 2 20 0
13 13 -23 0
-13 10 -9 0
-11 -13 -20 0
2 -1 -6 -7 -5 0
10 -16 21 -5 0
-22 -24 0
25 -20 2 0
15 24 -13 0
6 16 0